(declare-fun e () String)
(declare-fun c () String)
(declare-fun g () String)
(declare-fun b () String)
(declare-fun d () String)
(declare-fun f () String)
(declare-fun h () String)
(assert (= (str.++ b b) (str.++ "bb" d "add")))
(assert (= (str.++ "gc" g "h") (str.++ g "b" h "e" e c)))
(assert (= (str.++ "c" h c f) f))

(check-sat)
